(set-info :smt-lib-version 2.6)
(set-logic QF_UFLRA)
(set-info :source |
MathSat group

|)
(set-info :category "random")
(set-info :status sat)
(declare-fun x0 () Real)
(declare-fun x1 () Real)
(declare-fun x2 () Real)
(declare-fun x3 () Real)
(declare-fun x4 () Real)
(declare-fun x5 () Real)
(declare-fun x6 () Real)
(declare-fun x7 () Real)
(declare-fun x8 () Real)
(declare-fun x9 () Real)
(declare-fun x10 () Real)
(declare-fun x11 () Real)
(declare-fun x12 () Real)
(declare-fun x13 () Real)
(declare-fun x14 () Real)
(declare-fun x15 () Real)
(declare-fun x16 () Real)
(declare-fun x17 () Real)
(declare-fun x18 () Real)
(declare-fun x19 () Real)
(declare-fun x20 () Real)
(declare-fun x21 () Real)
(declare-fun x22 () Real)
(declare-fun x23 () Real)
(declare-fun x24 () Real)
(declare-fun x25 () Real)
(declare-fun x26 () Real)
(declare-fun x27 () Real)
(declare-fun x28 () Real)
(declare-fun x29 () Real)
(declare-fun f0_1 (Real) Real)
(declare-fun f0_2 (Real Real) Real)
(declare-fun f0_3 (Real Real Real) Real)
(declare-fun f0_4 (Real Real Real Real) Real)
(declare-fun P0 () Bool)
(declare-fun P1 () Bool)
(declare-fun P2 () Bool)
(declare-fun P3 () Bool)
(declare-fun P4 () Bool)
(declare-fun P5 () Bool)
(declare-fun P6 () Bool)
(declare-fun P7 () Bool)
(declare-fun P8 () Bool)
(declare-fun P9 () Bool)
(declare-fun P10 () Bool)
(declare-fun P11 () Bool)
(declare-fun P12 () Bool)
(declare-fun P13 () Bool)
(declare-fun P14 () Bool)
(declare-fun P15 () Bool)
(declare-fun P16 () Bool)
(declare-fun P17 () Bool)
(declare-fun P18 () Bool)
(declare-fun P19 () Bool)
(declare-fun P20 () Bool)
(declare-fun P21 () Bool)
(declare-fun P22 () Bool)
(declare-fun P23 () Bool)
(declare-fun P24 () Bool)
(declare-fun P25 () Bool)
(declare-fun P26 () Bool)
(declare-fun P27 () Bool)
(declare-fun P28 () Bool)
(declare-fun P29 () Bool)
(assert (let ((?v_2 (* 27 x5)) (?v_12 (<= (+ (- (* 25 x22) (* 30 x24)) (* 41 x13)) 34)) (?v_138 (= (+ (- (* 4 x28) (* 41 x7)) (* 10 x26)) 18)) (?v_34 (* 40 x29))) (let ((?v_43 (< (+ (- ?v_34 (* 5 x18)) (* 37 x18)) 4)) (?v_100 (<= (+ (- (* 37 x0) (* 31 x7)) (* 13 x28)) 29)) (?v_73 (<= (- (+ (* 19 x0) (* 4 x12)) (* 20 x24)) 26)) (?v_101 (* 37 x12)) (?v_65 (< (- (- (* 16 x29) (* 29 x21)) (* 4 x14)) 15)) (?v_55 (<= (- (- (* 3 x0) (* 41 x19)) (* 18 x14)) 16)) (?v_41 (f0_1 x18))) (let ((?v_99 (= (f0_2 x27 x18) ?v_41)) (?v_7 (distinct x5 (f0_2 x25 x9))) (?v_40 (distinct (f0_2 x8 x24) (f0_2 x25 x7))) (?v_16 (= (f0_1 x6) (f0_1 x0))) (?v_108 (distinct x17 (f0_1 x5))) (?v_21 (= x8 x11)) (?v_126 (distinct (f0_1 x11) x25)) (?v_104 (distinct x6 (f0_2 x11 x19))) (?v_19 (distinct (f0_1 x10) x13)) (?v_0 (distinct (f0_2 x23 x8) (f0_2 x6 x29))) (?v_136 (distinct x13 (f0_1 x2))) (?v_42 (= x3 x23)) (?v_103 (distinct (f0_2 x21 x24) x6)) (?v_111 (distinct ?v_41 (f0_2 x7 x22))) (?v_8 (f0_1 x13))) (let ((?v_20 (distinct x27 ?v_8)) (?v_3 (= (f0_2 x29 x8) (f0_2 x13 x15))) (?v_35 (distinct x26 (f0_2 x17 x17))) (?v_122 (= (f0_2 x18 x0) (f0_2 x10 x25))) (?v_31 (= x0 (f0_2 x24 x0))) (?v_134 (= (f0_2 x22 x5) ?v_41)) (?v_92 (distinct x18 (f0_2 x19 x17))) (?v_96 (distinct x4 (f0_1 x3))) (?v_105 (= ?v_8 (f0_2 x5 x6))) (?v_45 (distinct x14 x17)) (?v_53 (distinct x0 x16)) (?v_4 (distinct (f0_2 x16 x0) (f0_1 x12))) (?v_153 (= x20 (f0_2 x21 x15))) (?v_137 (distinct (f0_2 x7 x2) (f0_1 x28))) (?v_112 (= x8 x24)) (?v_33 (distinct (f0_2 x1 x29) x0)) (?v_119 (not P13))) (let ((?v_142 (not ?v_31)) (?v_5 (not ?v_122)) (?v_25 (not P19)) (?v_98 (not P16)) (?v_28 (not ?v_153)) (?v_63 (not ?v_7)) (?v_11 (not P7)) (?v_13 (not P15)) (?v_15 (not P5)) (?v_26 (not P3)) (?v_49 (not P18)) (?v_47 (not P21)) (?v_85 (not P20)) (?v_24 (not P9)) (?v_9 (not P28)) (?v_91 (not P8)) (?v_70 (not ?v_105)) (?v_72 (not ?v_134)) (?v_46 (not ?v_19)) (?v_29 (not ?v_0)) (?v_17 (not ?v_12)) (?v_38 (not ?v_16)) (?v_50 (not ?v_45)) (?v_132 (not P4)) (?v_74 (not ?v_4)) (?v_58 (not P27)) (?v_36 (not ?v_21)) (?v_151 (not ?v_42)) (?v_93 (not ?v_35)) (?v_148 (not P6)) (?v_116 (not ?v_33)) (?v_102 (not ?v_108)) (?v_64 (not P2)) (?v_71 (not ?v_92)) (?v_76 (not P11)) (?v_88 (or ?v_16 ?v_4)) (?v_107 (not ?v_43)) (?v_149 (not P1)) (?v_86 (not P26)) (?v_106 (not P0)) (?v_77 (not ?v_53)) (?v_78 (not P14)) (?v_123 (not P10)) (?v_144 (not ?v_3)) (?v_87 (not ?v_126)) (?v_80 (not P22)) (?v_135 (not ?v_96)) (?v_133 (not ?v_65)) (?v_95 (not ?v_40)) (?v_128 (not ?v_137)) (?v_75 (not ?v_73)) (?v_82 (not P25)) (?v_127 (not P17)) (?v_84 (not ?v_103)) (?v_155 (not P29)) (?v_90 (not ?v_55)) (?v_120 (not ?v_138)) (?v_117 (not ?v_100)) (?v_141 (not ?v_104)) (?v_147 (not ?v_111)) (?v_145 (not ?v_112)) (?v_130 (not P12)) (?v_129 (not P24)) (?v_143 (not ?v_20)) (?v_150 (not ?v_136)) (?v_154 (not ?v_99)) (?v_10 (<= (+ (* 28 x3) ?v_2) 9)) (?v_68 (<= (+ (- 0 ?v_101) (* 23 x18)) 38))) (let ((?v_56 (not ?v_68)) (?v_60 (<= (+ (* 3 x9) (* 33 x17) (* 11 x23)) 15))) (let ((?v_97 (not ?v_60)) (?v_110 (not ?v_10)) (?v_115 (< (+ (- 0 (* 8 x2)) (* 29 x13)) 10))) (let ((?v_89 (not ?v_115)) (?v_1 (= (+ (- (* (- 25) x29) (* 18 x18)) (* 13 x10)) (- 22)))) (let ((?v_6 (not ?v_1)) (?v_61 (< (- (- (* (- 12) x8) (* 23 x12)) (* 14 x8)) (- 42))) (?v_83 (distinct (+ (* (- 39) x19) (* 28 x21) (* 41 x5)) 0))) (let ((?v_37 (not ?v_83)) (?v_30 (< (- (- ?v_2 (* 24 x13)) (* 8 x24)) (- 17)))) (let ((?v_114 (not ?v_30)) (?v_79 (< (- (+ (* (- 8) x15) (* 15 x3)) (* 29 x27)) (- 23))) (?v_48 (< (+ (* 33 x4) (* 32 x3) (* 16 x3)) (- 23)))) (let ((?v_27 (not ?v_48)) (?v_146 (= (+ (* (- 37) x23) (* 33 x29) (* 41 x17)) (- 37)))) (let ((?v_109 (not ?v_146)) (?v_14 (< (- (+ (* 15 x15) (* 10 x23)) (* 34 x13)) (- 23))) (?v_59 (= (- (- (* (- 38) x14) (* 31 x6)) (* 29 x18)) 40)) (?v_18 (= (+ (- (* 39 x9) (* 26 x14)) (* 37 x1)) (- 41))) (?v_124 (<= (+ (- (* (- 16) x8) (* 6 x17)) (* 40 x18)) 2))) (let ((?v_22 (not ?v_124)) (?v_57 (<= (- (- (* (- 9) x17) ?v_34) (* 22 x1)) (- 17)))) (let ((?v_94 (not ?v_57)) (?v_54 (< (+ (- (* (- 24) x1) (* 39 x17)) (* 37 x19)) (- 27)))) (let ((?v_39 (not ?v_54)) (?v_23 (< (- (- (* 36 x1) (* 3 x29)) (* 27 x21)) (- 39))) (?v_67 (not ?v_14)) (?v_32 (not ?v_18)) (?v_44 (< (+ (- (* (- 29) x1) (* 24 x18)) (* 25 x15)) (- 15))) (?v_140 (= (+ (* (- 23) x24) (* 9 x3) (* 8 x17)) (- 38)))) (let ((?v_52 (not ?v_140)) (?v_69 (not ?v_23)) (?v_66 (= (- (+ (* 2 x8) (* 24 x5)) (* 5 x1)) (- 13)))) (let ((?v_113 (not ?v_66)) (?v_51 (not ?v_44)) (?v_62 (not ?v_59)) (?v_81 (not ?v_79)) (?v_125 (= (- (- (* (- 25) x7) x25) (* 14 x16)) (- 43)))) (let ((?v_121 (not ?v_125)) (?v_118 (<= (+ (- ?v_101 (* 14 x25)) (* 15 x26)) (- 28))) (?v_139 (not ?v_61))) (let ((?v_131 (not ?v_118)) (?v_152 (or P25 ?v_18))) (and (and (and (and (and (and (and (and (and (and (and (and (and (and (and (and (and (and (and (and (and (and (and (and (and (and (and (and (and (and (and (and (and (and (and (and (and (and (and (and (and (and (and (and (and (and (and (and (and (and (and (and (and (and (and (and (and (and (and (and (and (and (and (and (and (and (and (and (and (and (and (and (and (and (and (and (and (and (and (and (and (and (and (and (and (and (and (and (and (and (and (and (and (and (and (and (and (and (and (and (and (and (and (and (and (and (and (and (and (and (and (and (and (and (and (and (and (and (and (and (and (and (and (and (and (and (and (and (and (and (and (and (and (and (and (and (and (and (and (and (and (and (and (and (and (and (and (and (and (and (and (and (and (and (and (and (and (and (and (and (and (and (and (and (and (and (and (and (and (and (and (and (and (and (and (and (and (and (and (and (and (and (and (and (and (and (and (and (and (and (and (and (and (and (and (and (and (and (and (and (and (and (and (and (and (and (and (and (and (and (and (and (and (and (and (and (and (and (and (and (and (and (and (and (and (and (and (and (and (and (and (and (and (and (and (and (and (and (and (and (and (and (and (and (and (and (and (and (and (and (and (and (and (and (and (and (and (and (and (and (and (and (and (and (and (and (and (and (and (and (and (and (and (and (and (and (and (and (and (and (and (and (and (and (and (and (and (and (and (and (and (and (and (and (and (and (and (and (and (and (and (and (and (and (and (and (and (and (and (and (and (and (and (and (and (and (and (and (and (and (and (and (and (and (and (and (and (and (and (and (and (and (and (and (and (and (and (and (and (and (and (and (and (and (and (and (and (and (and (and (and (and (and (and (and (and (and (and (and (or (or ?v_119 P21) P10) (or (or ?v_6 P5) ?v_0)) (or (or ?v_61 ?v_142) ?v_5)) (or (or ?v_25 ?v_4) ?v_98)) (or (or ?v_0 ?v_37) ?v_73)) (or (or P0 ?v_0) P21)) (or (or ?v_28 P3) P20)) (or (or ?v_114 ?v_1) ?v_3)) (or (or ?v_63 ?v_79) ?v_11)) (or (or ?v_10 ?v_13) ?v_15)) (or (or ?v_53 ?v_26) ?v_20)) (or (or ?v_3 P9) ?v_4)) (or (or ?v_49 ?v_5) ?v_21)) (or (or ?v_47 ?v_55) ?v_6)) (or (or ?v_85 ?v_27) ?v_24)) (or (or P9 P20) ?v_7)) (or (or ?v_109 ?v_9) ?v_16)) (or (or ?v_91 ?v_70) ?v_65)) (or (or ?v_12 ?v_9) P1)) (or (or ?v_10 ?v_72) ?v_40)) (or (or P4 ?v_14) ?v_11)) (or (or ?v_46 (not P23)) P16)) (or (or ?v_29 ?v_59) ?v_18)) (or (or ?v_22 ?v_17) ?v_94)) (or (or ?v_39 ?v_23) P17)) (or (or ?v_13 ?v_4) ?v_67)) (or (or P13 ?v_15) ?v_38)) (or (or P11 ?v_17) ?v_50)) (or (or ?v_15 ?v_32) ?v_19)) (or (or ?v_20 ?v_132) ?v_74)) (or (or ?v_58 ?v_36) ?v_44)) (or (or ?v_151 ?v_22) ?v_52)) (or (or ?v_6 ?v_69) ?v_9)) (or (or ?v_93 P16) ?v_56)) (or (or ?v_18 ?v_24) ?v_25)) (or (or ?v_26 ?v_113) ?v_27)) (or (or ?v_28 ?v_29) ?v_30)) (or (or ?v_26 ?v_33) ?v_148)) (or (or ?v_31 ?v_97) ?v_32)) (or (or ?v_9 ?v_116) ?v_20)) (or (or ?v_43 P15) ?v_102)) (or (or ?v_64 ?v_71) ?v_7)) (or (or P21 P2) ?v_35)) (or (or ?v_36 ?v_1) ?v_76)) (or (or ?v_33 ?v_37) ?v_38)) (or ?v_88 ?v_39)) (or (or ?v_40 ?v_33) P26)) (or (or ?v_111 ?v_42) P9)) (or (or ?v_16 ?v_1) ?v_107)) (or (or ?v_149 P13) ?v_51)) (or (or ?v_30 ?v_45) P19)) (or (or ?v_46 ?v_47) ?v_48)) (or (or ?v_86 ?v_28) ?v_47)) (or (or ?v_1 ?v_49) ?v_106)) (or (or ?v_50 ?v_13) ?v_35)) (or (or ?v_51 ?v_52) P18)) (or (or P29 ?v_10) ?v_77)) (or (or ?v_54 ?v_78) ?v_42)) (or (or ?v_55 ?v_19) ?v_12)) (or (or ?v_56 ?v_36) ?v_57)) (or (or ?v_58 ?v_123) ?v_100)) (or (or ?v_62 P5) P10)) (or (or ?v_60 ?v_10) ?v_61)) (or (or ?v_144 ?v_59) ?v_49)) (or (or ?v_87 P14) ?v_62)) (or (or P27 ?v_110) ?v_22)) (or (or ?v_10 ?v_63) ?v_64)) (or (or ?v_11 P14) ?v_112)) (or (or ?v_80 ?v_24) ?v_50)) (or (or ?v_37 ?v_135) ?v_3)) (or (or P25 ?v_65) P21)) (or (or ?v_66 P9) ?v_14)) (or (or ?v_104 ?v_133) ?v_18)) (or (or ?v_62 ?v_3) ?v_95)) (or (or ?v_14 ?v_67) ?v_68)) (or (or ?v_54 ?v_69) ?v_128)) (or (or ?v_70 ?v_45) ?v_53)) (or (or ?v_28 ?v_49) ?v_25)) (or (or ?v_99 ?v_71) ?v_72)) (or (or ?v_75 ?v_22) ?v_82)) (or (or ?v_74 ?v_75) ?v_76)) (or (or ?v_77 ?v_59) ?v_78)) (or (or ?v_18 ?v_37) P5)) (or (or ?v_81 ?v_44) ?v_27)) (or (or P27 ?v_50) ?v_80)) (or (or ?v_127 ?v_31) ?v_49)) (or (or ?v_56 ?v_58) ?v_89)) (or (or ?v_23 ?v_84) ?v_59)) (or (or ?v_14 ?v_81) ?v_55)) (or (or P18 ?v_79) ?v_18)) (or (or ?v_37 ?v_14) ?v_82)) (or (or ?v_74 ?v_155) P0)) (or (or ?v_44 ?v_83) P3)) (or (or ?v_84 ?v_85) ?v_62)) (or (or ?v_59 ?v_86) ?v_87)) (or (or ?v_66 ?v_90) ?v_121)) (or ?v_88 P27)) (or (or ?v_62 ?v_30) ?v_80)) (or (or ?v_27 ?v_89) ?v_44)) (or (or ?v_90 ?v_40) ?v_68)) (or (or ?v_90 ?v_91) ?v_72)) (or (or ?v_61 ?v_11) ?v_120)) (or (or ?v_92 ?v_93) P4)) (or (or ?v_94 ?v_51) ?v_82)) (or (or ?v_28 ?v_32) ?v_7)) (or (or ?v_50 ?v_67) ?v_95)) (or (or ?v_93 ?v_85) ?v_96)) (or (or ?v_92 ?v_97) ?v_0)) (or (or ?v_82 P18) ?v_98)) (or (or ?v_4 ?v_99) P17)) (or (or ?v_47 ?v_21) ?v_76)) (or (or ?v_64 P27) ?v_11)) (or (or ?v_90 ?v_117) ?v_71)) (or (or P14 ?v_118) ?v_89)) (or (or ?v_80 ?v_102) ?v_103)) (or (or P1 ?v_90) ?v_100)) (or (or ?v_141 P7) ?v_26)) (or (or ?v_26 ?v_81) ?v_39)) (or (or ?v_105 ?v_58) ?v_106)) (or (or ?v_107 ?v_108) ?v_83)) (or (or ?v_84 ?v_38) ?v_26)) (or (or ?v_53 ?v_109) ?v_66)) (or (or ?v_22 ?v_66) ?v_86)) (or (or ?v_110 ?v_147) ?v_64)) (or (or ?v_38 ?v_83) ?v_75)) (or (or ?v_69 ?v_145) ?v_111)) (or (or ?v_57 ?v_136) ?v_89)) (or (or ?v_47 P14) ?v_3)) (or (or ?v_94 ?v_39) ?v_108)) (or (or ?v_113 ?v_53) ?v_15)) (or (or ?v_29 P9) ?v_114)) (or (or P0 ?v_115) ?v_105)) (or (or ?v_83 ?v_116) ?v_117)) (or (or ?v_130 P9) ?v_52)) (or (or ?v_37 ?v_36) ?v_39)) (or (or P25 ?v_59) ?v_17)) (or (or ?v_48 ?v_72) ?v_118)) (or (or ?v_3 ?v_85) P14)) (or (or ?v_119 ?v_77) ?v_115)) (or (or ?v_10 ?v_9) ?v_120)) (or (or ?v_121 ?v_92) ?v_58)) (or (or ?v_29 ?v_122) ?v_123)) (or (or ?v_71 ?v_67) ?v_53)) (or (or P27 ?v_13) ?v_21)) (or (or ?v_114 ?v_15) ?v_96)) (or (or ?v_99 ?v_139) ?v_75)) (or (or P0 ?v_39) ?v_124)) (or (or ?v_12 P22) ?v_19)) (or (or ?v_60 ?v_52) ?v_125)) (or (or P0 ?v_56) P1)) (or (or P6 ?v_54) ?v_116)) (or (or P23 ?v_40) ?v_14)) (or (or ?v_129 ?v_126) P22)) (or (or P26 P23) P7)) (or (or ?v_89 ?v_29) ?v_80)) (or (or P8 ?v_59) ?v_127)) (or (or ?v_13 ?v_59) ?v_127)) (or (or P27 P22) ?v_108)) (or (or ?v_128 ?v_129) ?v_104)) (or (or ?v_22 P9) ?v_130)) (or (or ?v_57 ?v_93) ?v_51)) (or (or ?v_6 ?v_70) ?v_38)) (or (or P21 ?v_131) ?v_106)) (or (or ?v_44 ?v_129) ?v_113)) (or (or P11 ?v_76) ?v_61)) (or (or ?v_109 P6) ?v_100)) (or (or ?v_131 P24) ?v_45)) (or (or ?v_11 P13) ?v_132)) (or (or ?v_112 P1) ?v_119)) (or (or ?v_132 ?v_133) ?v_93)) (or (or ?v_127 ?v_21) ?v_110)) (or (or P14 P27) ?v_125)) (or (or ?v_118 ?v_17) ?v_5)) (or (or ?v_28 ?v_80) ?v_134)) (or (or ?v_13 ?v_135) ?v_136)) (or (or ?v_40 ?v_18) P23)) (or (or ?v_137 ?v_121) ?v_107)) (or (or ?v_48 ?v_77) ?v_126)) (or (or ?v_131 ?v_120) ?v_39)) (or (or ?v_36 ?v_33) ?v_54)) (or (or ?v_3 ?v_105) ?v_47)) (or (or ?v_132 ?v_45) ?v_22)) (or (or ?v_138 ?v_36) ?v_30)) (or (or ?v_56 ?v_139) ?v_81)) (or (or P11 ?v_9) P1)) (or (or ?v_140 ?v_55) ?v_83)) (or (or ?v_79 ?v_133) ?v_48)) (or (or ?v_66 ?v_69) ?v_105)) (or (or ?v_126 ?v_72) ?v_104)) (or (or P16 ?v_25) ?v_102)) (or (or ?v_131 ?v_0) P24)) (or (or ?v_10 P6) ?v_141)) (or (or P4 P17) ?v_142)) (or (or P26 ?v_5) ?v_75)) (or (or ?v_127 ?v_125) ?v_73)) (or (or ?v_59 ?v_16) ?v_6)) (or (or P6 ?v_16) ?v_55)) (or (or ?v_77 ?v_21) ?v_44)) (or (or ?v_110 ?v_80) ?v_50)) (or (or ?v_91 ?v_110) ?v_143)) (or (or ?v_35 ?v_143) ?v_58)) (or (or ?v_100 ?v_1) ?v_103)) (or (or ?v_94 ?v_128) ?v_103)) (or (or P27 ?v_77) ?v_26)) (or (or ?v_40 ?v_45) ?v_121)) (or (or ?v_117 ?v_50) ?v_5)) (or (or P2 ?v_31) ?v_75)) (or (or ?v_78 ?v_40) ?v_12)) (or (or ?v_75 ?v_105) P5)) (or (or ?v_83 ?v_26) ?v_82)) (or (or P9 ?v_104) ?v_50)) (or (or ?v_50 ?v_89) ?v_56)) (or (or ?v_144 P15) ?v_63)) (or (or ?v_145 ?v_17) ?v_107)) (or (or ?v_96 ?v_48) ?v_89)) (or (or ?v_7 ?v_14) ?v_95)) (or (or ?v_142 ?v_63) ?v_19)) (or (or ?v_134 ?v_142) ?v_55)) (or (or P5 ?v_102) ?v_100)) (or (or P6 ?v_146) ?v_121)) (or (or ?v_136 P24) ?v_116)) (or (or P24 ?v_147) ?v_148)) (or (or ?v_42 ?v_22) ?v_89)) (or (or ?v_144 ?v_100) ?v_73)) (or (or ?v_57 ?v_55) ?v_24)) (or (or ?v_24 ?v_3) ?v_68)) (or (or ?v_1 ?v_47) ?v_122)) (or (or ?v_128 ?v_43) P18)) (or (or ?v_150 P16) ?v_130)) (or (or ?v_133 ?v_28) ?v_73)) (or (or ?v_123 ?v_118) ?v_18)) (or (or ?v_44 ?v_134) P8)) (or (or P16 ?v_10) ?v_145)) (or ?v_152 ?v_47)) (or (or ?v_149 ?v_79) P5)) (or (or P10 P15) P6)) (or (or ?v_38 ?v_23) ?v_145)) (or (or ?v_130 ?v_13) P20)) (or (or ?v_127 ?v_150) ?v_25)) (or (or ?v_97 ?v_5) ?v_140)) (or (or P15 ?v_99) P2)) (or (or ?v_78 P15) ?v_39)) (or (or P12 ?v_98) ?v_151)) (or (or P23 ?v_20) ?v_61)) (or (or ?v_85 ?v_54) ?v_55)) (or (or ?v_105 ?v_113) ?v_134)) (or (or ?v_43 ?v_85) P16)) (or (or ?v_9 ?v_91) ?v_29)) (or (or ?v_150 ?v_107) ?v_145)) (or (or P17 ?v_85) ?v_112)) (or (or ?v_127 P23) ?v_24)) (or (or ?v_62 ?v_20) ?v_11)) (or (or P17 ?v_24) ?v_120)) (or (or P8 P9) ?v_124)) (or (or P19 ?v_64) ?v_50)) (or (or ?v_94 ?v_58) ?v_92)) (or (or ?v_130 ?v_70) P1)) (or (or ?v_67 ?v_132) P19)) (or (or ?v_33 P11) P1)) (or (or P17 ?v_133) P26)) (or (or ?v_84 ?v_89) ?v_82)) (or (or ?v_115 P21) P11)) (or (or ?v_39 ?v_28) ?v_87)) (or (or ?v_119 ?v_102) ?v_87)) (or (or ?v_59 ?v_135) ?v_44)) (or (or ?v_40 P4) ?v_147)) (or (or ?v_23 P22) ?v_116)) (or (or ?v_44 ?v_98) ?v_72)) (or (or ?v_121 ?v_53) ?v_143)) (or (or ?v_24 ?v_20) P15)) (or (or P29 ?v_147) P25)) (or (or ?v_70 ?v_5) ?v_145)) (or ?v_152 P9)) (or (or ?v_90 P23) ?v_98)) (or (or P13 ?v_83) ?v_133)) (or (or ?v_125 ?v_142) ?v_29)) (or (or ?v_105 ?v_5) ?v_6)) (or (or ?v_109 ?v_76) ?v_64)) (or (or ?v_0 ?v_93) ?v_81)) (or (or ?v_132 P7) ?v_148)) (or (or ?v_80 ?v_123) ?v_24)) (or (or ?v_76 ?v_52) P0)) (or (or P7 ?v_49) P8)) (or (or ?v_113 ?v_16) ?v_143)) (or (or ?v_93 ?v_52) ?v_53)) (or (or ?v_143 ?v_137) ?v_130)) (or (or ?v_78 ?v_150) ?v_144)) (or (or ?v_92 ?v_83) ?v_17)) (or (or P16 ?v_113) ?v_24)) (or (or P17 ?v_95) ?v_73)) (or (or ?v_54 ?v_21) ?v_1)) (or (or ?v_10 ?v_71) ?v_123)) (or (or ?v_130 ?v_124) P0)) (or (or ?v_33 ?v_86) ?v_79)) (or (or ?v_44 P7) ?v_74)) (or (or ?v_144 ?v_48) ?v_85)) (or (or ?v_15 ?v_107) P11)) (or (or ?v_112 ?v_147) ?v_68)) (or (or ?v_67 ?v_76) ?v_96)) (or (or P12 ?v_82) ?v_50)) (or (or ?v_54 ?v_130) ?v_139)) (or (or ?v_72 ?v_78) ?v_38)) (or (or ?v_148 ?v_69) ?v_22)) (or (or P14 ?v_126) ?v_105)) (or (or ?v_45 ?v_69) ?v_109)) (or (or ?v_55 ?v_121) ?v_80)) (or (or ?v_145 ?v_16) ?v_110)) (or (or P12 ?v_121) ?v_63)) (or (or ?v_46 ?v_64) ?v_68)) (or (or ?v_154 ?v_24) ?v_118)) (or (or ?v_75 ?v_153) P7)) (or (or ?v_7 ?v_9) ?v_82)) (or (or ?v_18 ?v_57) ?v_45)) (or (or ?v_29 ?v_46) ?v_113)) (or (or ?v_89 ?v_109) ?v_85)) (or (or ?v_123 P25) P1)) (or (or ?v_54 P8) ?v_45)) (or (or ?v_120 ?v_28) P1)) (or (or ?v_32 ?v_55) ?v_106)) (or (or ?v_133 P17) ?v_59)) (or (or ?v_57 ?v_132) ?v_138)) (or (or ?v_73 P22) ?v_13)) (or (or ?v_63 ?v_37) ?v_10)) (or (or ?v_121 P8) ?v_139)) (or (or ?v_89 P14) ?v_0)) (or (or P23 P26) ?v_15)) (or (or P19 ?v_24) ?v_0)) (or (or ?v_147 ?v_7) ?v_54)) (or (or ?v_68 ?v_121) ?v_85)) (or (or ?v_129 ?v_65) ?v_140)) (or (or ?v_73 ?v_154) ?v_132)) (or (or ?v_92 ?v_78) ?v_44)) (or (or ?v_29 ?v_135) P4)) (or (or ?v_13 ?v_155) ?v_20)) (or (or ?v_84 ?v_25) ?v_38)) (or (or P19 ?v_151) P3)) (or (or ?v_115 ?v_147) P20)) (or (or ?v_73 ?v_60) ?v_122)) (or (or ?v_42 ?v_32) ?v_7)) (or (or ?v_151 ?v_114) ?v_91)) (or (or ?v_26 ?v_103) ?v_126)) (or (or ?v_85 ?v_119) P18)) (or (or P22 ?v_62) ?v_146)) (or (or ?v_50 P21) ?v_73)) (or (or ?v_113 ?v_120) ?v_125)) (or (or ?v_40 P16) ?v_58)) (or (or ?v_150 ?v_93) ?v_25)) (or (or ?v_86 ?v_138) ?v_95)) (or (or ?v_134 ?v_59) ?v_97)) (or (or ?v_129 P18) P13)) (or (or ?v_127 ?v_69) ?v_144)) (or (or ?v_148 ?v_5) ?v_109)) (or (or ?v_136 ?v_129) ?v_133)) (or (or ?v_126 P21) ?v_23)) (or (or P9 ?v_63) ?v_143)) (or (or P23 ?v_49) ?v_83)) (or (or ?v_67 ?v_108) ?v_6)) (or (or ?v_11 P1) ?v_136)) (or (or ?v_17 ?v_146) ?v_102)) (or (or ?v_154 ?v_121) P18)))))))))))))))))))))))
(check-sat)
(exit)
